#######################
Slurm job id: 17497813_251
Running on machine: p77
Running cmd: /nfs/shared/static-builds/gurobi1202 SOFTMEMLIMIT=125 MIPFocus=3 Presolve=2 TimeLimit=500 seed=10 /nfs/models/miplib2010/k16x240.mps.bz2
#######################
Set parameter TimeLimit to value 500
Set parameter SoftMemLimit to value 125
Set parameter MIPFocus to value 3
Set parameter LogFile to value 1202-MIPFocus3-Presolve2-TimeLimit500-k16x240-0.log
Set parameter Presolve to value 2
Set parameter Seed to value 10
Using license file /opt/gurobi/gurobi.lic

Gurobi Optimizer version 12.0.2 build v12.0.2rc0 (linux64 - "Ubuntu 22.04.4 LTS")
Copyright (c) 2025, Gurobi Optimization, LLC

Read MPS format model from file /nfs/models/miplib2010/k16x240.mps.bz2
Reading time = 0.00 seconds
k16x240: 256 rows, 480 columns, 960 nonzeros

Using Gurobi shared library /nfs/shared/static-builds/gurobi1202

CPU model: Intel(R) Xeon(R) E-2388G CPU @ 3.20GHz, instruction set [SSE2|AVX|AVX2|AVX512]
Thread count: 8 physical cores, 16 logical processors, using up to 16 threads

Non-default parameters:
TimeLimit  500
SoftMemLimit  125
MIPFocus  3
Presolve  2
Seed  10

Optimize a model with 256 rows, 480 columns and 960 nonzeros
Model fingerprint: 0x4e80885f
Variable types: 240 continuous, 240 integer (240 binary)
Coefficient statistics:
  Matrix range     [1e+00, 1e+03]
  Objective range  [1e+00, 1e+03]
  Bounds range     [1e+00, 1e+03]
  RHS range        [4e+00, 4e+02]
Found heuristic solution: objective 20380.000000
Presolve time: 0.00s
Presolved: 256 rows, 480 columns, 960 nonzeros
Variable types: 240 continuous, 240 integer (240 binary)
Root relaxation presolve removed 241 rows and 240 columns
Root relaxation presolved: 15 rows, 240 columns, 450 nonzeros


Root relaxation: objective 2.769838e+03, 16 iterations, 0.00 seconds (0.00 work units)

    Nodes    |    Current Node    |     Objective Bounds      |     Work
 Expl Unexpl |  Obj  Depth IntInf | Incumbent    BestBd   Gap | It/Node Time

     0     0 2769.83800    0   14 20380.0000 2769.83800  86.4%     -    0s
H    0     0                    11359.000000 2769.83800  75.6%     -    0s
H    0     0                    11262.000000 2769.83800  75.4%     -    0s
H    0     0                    11261.000000 2769.83800  75.4%     -    0s
H    0     0                    11100.000000 2769.83800  75.0%     -    0s
H    0     0                    11018.000000 2769.83800  74.9%     -    0s
H    0     0                    10993.000000 2769.83800  74.8%     -    0s
H    0     0                    10912.000000 2769.83800  74.6%     -    0s
     0     0 8116.87580    0   26 10912.0000 8116.87580  25.6%     -    0s
H    0     0                    10877.000000 8182.85928  24.8%     -    0s
H    0     0                    10787.000000 8182.85928  24.1%     -    0s
     0     0 8748.17806    0   23 10787.0000 8748.17806  18.9%     -    0s
     0     0 8751.29955    0   19 10787.0000 8751.29955  18.9%     -    0s
     0     0 8771.82481    0   21 10787.0000 8771.82481  18.7%     -    0s
     0     0 8810.95744    0   23 10787.0000 8810.95744  18.3%     -    0s
     0     0 8810.95744    0   24 10787.0000 8810.95744  18.3%     -    0s
     0     0 9046.36529    0   39 10787.0000 9046.36529  16.1%     -    0s
H    0     0                    10765.000000 9046.36529  16.0%     -    0s
     0     0 9053.09346    0   30 10765.0000 9053.09346  15.9%     -    0s
H    0     0                    10681.000000 9056.44984  15.2%     -    0s
     0     0 9126.53670    0   32 10681.0000 9126.53670  14.6%     -    0s
     0     0 9201.39635    0   32 10681.0000 9201.39635  13.9%     -    0s
     0     0 9201.39635    0   32 10681.0000 9201.39635  13.9%     -    0s
H    0     0                    10674.000000 9201.39635  13.8%     -    0s
     0     2 9201.39635    0   32 10674.0000 9201.39635  13.8%     -    0s
  6194  3605 10403.6255   32   17 10674.0000 10358.9047  2.95%  80.8    5s
 32263    87     cutoff   32      10674.0000 10671.2887  0.03%  41.2   10s

Cutting planes:
  Lift-and-project: 10
  Implied bound: 10
  Dual implied bound: 6
  MIR: 129
  Mixing: 1
  Flow cover: 519
  Flow path: 39
  Zero half: 23
  Network: 26
  Relax-and-lift: 4

Explored 32321 nodes (1331175 simplex iterations) in 10.01 seconds (13.68 work units)
Thread count was 16 (of 16 available processors)

Solution count 10: 10674 10681 10765 ... 11261

Optimal solution found (tolerance 1.00e-04)
Best objective 1.067400000000e+04, best bound 1.067300000000e+04, gap 0.0094%
